1023,517
810,805
1137,554
1023,517
966,314
591,406
898,-21
628,433
245,89
776,593
745,207
847,919
611,850
718,520
829,429
387,257
558,237
822,212
382,-6
491,32
399,794
874,140
653,229
368,507
769,420
427,152
635,702
709,583
734,379
532,112
207,481
512,283
591,406
708,459
641,326
660,427
657,389
567,443
708,491
